2 6 7 8 46 4 55 68 
92 31 29 27 28 26 32 93 
45 5 3 1 70 100 
95 63 33 30 34 50 80 
69 98 88 79 73 78 53 9 87 97 74 66 
82 52 57 22 20 49 24 48 25 77 58 
65 83 59 75 86 99 90 
47 14 12 16 15 11 10 13 17 60 
67 62 85 76 89 91 
61 44 41 38 40 43 35 37 54 
81 94 96 
42 39 36 72 71 64 23 21 18 19 51 84 56 
